c Reduced graph for r13 generated by Cyril Grelier
p edge 217 2449
e 1 5
e 1 16
e 1 24
e 1 30
e 1 31
e 1 44
e 1 65
e 1 81
e 1 82
e 1 87
e 1 90
e 1 106
e 1 109
e 1 120
e 1 142
e 1 151
e 1 158
e 1 200
e 1 201
e 1 208
e 1 210
e 2 6
e 2 19
e 2 22
e 2 34
e 2 38
e 2 39
e 2 47
e 2 53
e 2 62
e 2 75
e 2 110
e 2 114
e 2 119
e 2 121
e 2 133
e 2 137
e 2 143
e 2 147
e 2 155
e 2 165
e 2 184
e 2 191
e 2 194
e 3 9
e 3 18
e 3 26
e 3 27
e 3 31
e 3 43
e 3 51
e 3 64
e 3 69
e 3 70
e 3 87
e 3 93
e 3 94
e 3 103
e 3 118
e 3 127
e 3 128
e 3 129
e 3 131
e 3 167
e 3 176
e 3 191
e 3 203
e 3 205
e 3 209
e 4 8
e 4 13
e 4 15
e 4 33
e 4 49
e 4 50
e 4 69
e 4 92
e 4 121
e 4 122
e 4 129
e 4 139
e 4 160
e 4 169
e 4 175
e 4 184
e 4 186
e 4 193
e 4 204
e 4 208
e 4 212
e 5 10
e 5 22
e 5 30
e 5 31
e 5 44
e 5 63
e 5 65
e 5 68
e 5 72
e 5 81
e 5 90
e 5 94
e 5 102
e 5 109
e 5 115
e 5 123
e 5 142
e 5 180
e 5 186
e 5 210
e 6 22
e 6 38
e 6 39
e 6 47
e 6 49
e 6 62
e 6 70
e 6 73
e 6 75
e 6 85
e 6 89
e 6 114
e 6 117
e 6 121
e 6 133
e 6 137
e 6 142
e 6 143
e 6 157
e 6 178
e 6 181
e 6 190
e 6 194
e 7 21
e 7 32
e 7 40
e 7 54
e 7 62
e 7 80
e 7 96
e 7 107
e 7 134
e 7 145
e 7 147
e 7 150
e 7 163
e 7 167
e 7 168
e 7 178
e 7 198
e 7 205
e 7 206
e 7 217
e 8 11
e 8 12
e 8 15
e 8 21
e 8 41
e 8 49
e 8 59
e 8 81
e 8 114
e 8 124
e 8 129
e 8 139
e 8 169
e 8 171
e 8 173
e 8 177
e 8 184
e 8 186
e 8 196
e 8 202
e 8 208
e 8 212
e 9 15
e 9 51
e 9 54
e 9 58
e 9 64
e 9 69
e 9 70
e 9 74
e 9 78
e 9 83
e 9 87
e 9 94
e 9 103
e 9 132
e 9 137
e 9 149
e 9 162
e 9 176
e 9 191
e 9 205
e 9 209
e 10 18
e 10 22
e 10 63
e 10 68
e 10 72
e 10 76
e 10 78
e 10 92
e 10 94
e 10 97
e 10 99
e 10 102
e 10 115
e 10 117
e 10 123
e 10 154
e 10 177
e 10 180
e 10 186
e 11 12
e 11 21
e 11 26
e 11 41
e 11 55
e 11 58
e 11 59
e 11 81
e 11 106
e 11 110
e 11 114
e 11 115
e 11 122
e 11 124
e 11 146
e 11 171
e 11 173
e 11 177
e 11 195
e 11 196
e 11 197
e 11 202
e 11 215
e 12 13
e 12 14
e 12 17
e 12 20
e 12 21
e 12 41
e 12 59
e 12 71
e 12 81
e 12 82
e 12 111
e 12 114
e 12 124
e 12 132
e 12 140
e 12 145
e 12 171
e 12 173
e 12 177
e 12 185
e 12 196
e 12 202
e 12 203
e 13 14
e 13 17
e 13 20
e 13 33
e 13 50
e 13 69
e 13 71
e 13 82
e 13 92
e 13 111
e 13 121
e 13 122
e 13 132
e 13 140
e 13 145
e 13 160
e 13 175
e 13 185
e 13 193
e 13 203
e 13 204
e 14 17
e 14 20
e 14 32
e 14 36
e 14 37
e 14 48
e 14 71
e 14 82
e 14 88
e 14 104
e 14 111
e 14 113
e 14 132
e 14 140
e 14 143
e 14 145
e 14 179
e 14 183
e 14 185
e 14 197
e 14 203
e 14 209
e 14 212
e 15 49
e 15 54
e 15 58
e 15 74
e 15 78
e 15 83
e 15 129
e 15 132
e 15 137
e 15 139
e 15 149
e 15 162
e 15 169
e 15 184
e 15 186
e 15 208
e 15 212
e 16 24
e 16 28
e 16 43
e 16 48
e 16 79
e 16 82
e 16 87
e 16 106
e 16 108
e 16 120
e 16 151
e 16 158
e 16 165
e 16 166
e 16 180
e 16 182
e 16 196
e 16 200
e 16 201
e 16 208
e 16 211
e 16 216
e 16 217
e 17 20
e 17 46
e 17 47
e 17 57
e 17 66
e 17 71
e 17 82
e 17 98
e 17 105
e 17 111
e 17 126
e 17 132
e 17 140
e 17 145
e 17 174
e 17 185
e 17 195
e 17 198
e 17 203
e 17 210
e 17 216
e 18 26
e 18 27
e 18 31
e 18 43
e 18 76
e 18 78
e 18 92
e 18 93
e 18 97
e 18 99
e 18 117
e 18 118
e 18 127
e 18 128
e 18 129
e 18 131
e 18 154
e 18 167
e 18 177
e 18 203
e 19 29
e 19 34
e 19 37
e 19 40
e 19 41
e 19 46
e 19 53
e 19 83
e 19 110
e 19 119
e 19 147
e 19 148
e 19 155
e 19 156
e 19 158
e 19 165
e 19 184
e 19 187
e 19 191
e 19 193
e 20 38
e 20 51
e 20 52
e 20 60
e 20 71
e 20 77
e 20 82
e 20 84
e 20 95
e 20 108
e 20 111
e 20 132
e 20 140
e 20 145
e 20 185
e 20 203
e 20 213
e 21 32
e 21 41
e 21 54
e 21 59
e 21 81
e 21 114
e 21 124
e 21 147
e 21 163
e 21 167
e 21 171
e 21 173
e 21 177
e 21 178
e 21 196
e 21 198
e 21 202
e 22 38
e 22 39
e 22 47
e 22 62
e 22 63
e 22 68
e 22 72
e 22 75
e 22 94
e 22 102
e 22 114
e 22 115
e 22 121
e 22 123
e 22 133
e 22 137
e 22 143
e 22 180
e 22 186
e 22 194
e 23 24
e 23 33
e 23 60
e 23 66
e 23 68
e 23 85
e 23 88
e 23 97
e 23 103
e 23 127
e 23 135
e 23 136
e 23 140
e 23 144
e 23 152
e 23 166
e 23 172
e 23 173
e 23 187
e 23 188
e 23 199
e 23 206
e 24 33
e 24 60
e 24 66
e 24 68
e 24 82
e 24 85
e 24 87
e 24 88
e 24 106
e 24 120
e 24 127
e 24 135
e 24 151
e 24 152
e 24 158
e 24 172
e 24 173
e 24 188
e 24 200
e 24 201
e 24 206
e 24 208
e 25 29
e 25 39
e 25 42
e 25 45
e 25 55
e 25 56
e 25 64
e 25 65
e 25 73
e 25 84
e 25 111
e 25 112
e 25 116
e 25 141
e 25 150
e 25 154
e 25 155
e 25 163
e 25 170
e 25 182
e 25 201
e 25 214
e 26 27
e 26 31
e 26 43
e 26 55
e 26 58
e 26 93
e 26 106
e 26 110
e 26 115
e 26 118
e 26 122
e 26 127
e 26 128
e 26 129
e 26 131
e 26 146
e 26 167
e 26 195
e 26 197
e 26 203
e 26 215
e 27 31
e 27 35
e 27 43
e 27 56
e 27 72
e 27 91
e 27 93
e 27 95
e 27 118
e 27 125
e 27 127
e 27 128
e 27 129
e 27 131
e 27 134
e 27 167
e 27 174
e 27 183
e 27 203
e 28 35
e 28 43
e 28 48
e 28 75
e 28 79
e 28 90
e 28 100
e 28 108
e 28 138
e 28 139
e 28 148
e 28 152
e 28 159
e 28 165
e 28 166
e 28 170
e 28 180
e 28 182
e 28 185
e 28 196
e 28 207
e 28 211
e 28 216
e 28 217
e 29 37
e 29 39
e 29 40
e 29 41
e 29 42
e 29 45
e 29 46
e 29 55
e 29 56
e 29 64
e 29 65
e 29 83
e 29 111
e 29 116
e 29 148
e 29 154
e 29 156
e 29 158
e 29 163
e 29 182
e 29 187
e 29 193
e 30 31
e 30 44
e 30 61
e 30 65
e 30 81
e 30 90
e 30 99
e 30 109
e 30 133
e 30 141
e 30 142
e 30 146
e 30 156
e 30 169
e 30 176
e 30 188
e 30 189
e 30 192
e 30 210
e 31 43
e 31 44
e 31 65
e 31 81
e 31 90
e 31 93
e 31 109
e 31 118
e 31 127
e 31 128
e 31 129
e 31 131
e 31 142
e 31 167
e 31 203
e 31 210
e 32 36
e 32 37
e 32 48
e 32 54
e 32 88
e 32 104
e 32 113
e 32 143
e 32 147
e 32 163
e 32 167
e 32 178
e 32 179
e 32 183
e 32 197
e 32 198
e 32 209
e 32 212
e 33 50
e 33 60
e 33 66
e 33 68
e 33 69
e 33 85
e 33 88
e 33 92
e 33 121
e 33 122
e 33 127
e 33 135
e 33 152
e 33 160
e 33 172
e 33 173
e 33 175
e 33 188
e 33 193
e 33 204
e 33 206
e 34 45
e 34 53
e 34 67
e 34 93
e 34 96
e 34 104
e 34 110
e 34 119
e 34 120
e 34 126
e 34 130
e 34 147
e 34 149
e 34 155
e 34 160
e 34 165
e 34 181
e 34 184
e 34 189
e 34 191
e 35 56
e 35 72
e 35 75
e 35 90
e 35 91
e 35 95
e 35 100
e 35 125
e 35 134
e 35 138
e 35 139
e 35 148
e 35 152
e 35 159
e 35 170
e 35 174
e 35 183
e 35 185
e 35 207
e 36 37
e 36 48
e 36 50
e 36 59
e 36 63
e 36 88
e 36 89
e 36 104
e 36 113
e 36 116
e 36 131
e 36 138
e 36 143
e 36 151
e 36 153
e 36 179
e 36 183
e 36 197
e 36 199
e 36 209
e 36 212
e 37 40
e 37 41
e 37 46
e 37 48
e 37 83
e 37 88
e 37 104
e 37 113
e 37 143
e 37 148
e 37 156
e 37 158
e 37 179
e 37 183
e 37 187
e 37 193
e 37 197
e 37 209
e 37 212
e 38 39
e 38 47
e 38 51
e 38 52
e 38 60
e 38 62
e 38 75
e 38 77
e 38 84
e 38 95
e 38 108
e 38 114
e 38 121
e 38 133
e 38 137
e 38 143
e 38 194
e 38 213
e 39 42
e 39 45
e 39 47
e 39 55
e 39 56
e 39 62
e 39 64
e 39 65
e 39 75
e 39 111
e 39 114
e 39 116
e 39 121
e 39 133
e 39 137
e 39 143
e 39 154
e 39 163
e 39 182
e 39 194
e 40 41
e 40 46
e 40 62
e 40 80
e 40 83
e 40 96
e 40 107
e 40 134
e 40 145
e 40 148
e 40 150
e 40 156
e 40 158
e 40 168
e 40 187
e 40 193
e 40 205
e 40 206
e 40 217
e 41 46
e 41 59
e 41 81
e 41 83
e 41 114
e 41 124
e 41 148
e 41 156
e 41 158
e 41 171
e 41 173
e 41 177
e 41 187
e 41 193
e 41 196
e 41 202
e 42 45
e 42 53
e 42 55
e 42 56
e 42 61
e 42 64
e 42 65
e 42 80
e 42 86
e 42 105
e 42 111
e 42 113
e 42 116
e 42 123
e 42 124
e 42 144
e 42 154
e 42 162
e 42 163
e 42 164
e 42 175
e 42 182
e 42 207
e 42 213
e 43 48
e 43 79
e 43 93
e 43 108
e 43 118
e 43 127
e 43 128
e 43 129
e 43 131
e 43 165
e 43 166
e 43 167
e 43 180
e 43 182
e 43 196
e 43 203
e 43 211
e 43 216
e 43 217
e 44 65
e 44 67
e 44 71
e 44 79
e 44 81
e 44 90
e 44 91
e 44 101
e 44 109
e 44 135
e 44 142
e 44 153
e 44 164
e 44 194
e 44 210
e 44 214
e 45 55
e 45 56
e 45 64
e 45 65
e 45 67
e 45 93
e 45 96
e 45 104
e 45 111
e 45 116
e 45 120
e 45 126
e 45 130
e 45 149
e 45 154
e 45 160
e 45 163
e 45 181
e 45 182
e 45 189
e 46 47
e 46 57
e 46 66
e 46 83
e 46 98
e 46 105
e 46 126
e 46 148
e 46 156
e 46 158
e 46 174
e 46 187
e 46 193
e 46 195
e 46 198
e 46 210
e 46 216
e 47 57
e 47 62
e 47 66
e 47 75
e 47 98
e 47 105
e 47 114
e 47 121
e 47 126
e 47 133
e 47 137
e 47 143
e 47 174
e 47 194
e 47 195
e 47 198
e 47 210
e 47 216
e 48 79
e 48 88
e 48 104
e 48 108
e 48 113
e 48 143
e 48 165
e 48 166
e 48 179
e 48 180
e 48 182
e 48 183
e 48 196
e 48 197
e 48 209
e 48 211
e 48 212
e 48 216
e 48 217
e 49 70
e 49 73
e 49 85
e 49 89
e 49 117
e 49 129
e 49 139
e 49 142
e 49 157
e 49 169
e 49 178
e 49 181
e 49 184
e 49 186
e 49 190
e 49 208
e 49 212
e 50 59
e 50 63
e 50 69
e 50 89
e 50 92
e 50 116
e 50 121
e 50 122
e 50 131
e 50 138
e 50 151
e 50 153
e 50 160
e 50 175
e 50 193
e 50 199
e 50 204
e 51 52
e 51 60
e 51 64
e 51 69
e 51 70
e 51 77
e 51 84
e 51 87
e 51 94
e 51 95
e 51 103
e 51 108
e 51 176
e 51 191
e 51 205
e 51 209
e 51 213
e 52 60
e 52 77
e 52 84
e 52 95
e 52 98
e 52 108
e 52 118
e 52 119
e 52 136
e 52 159
e 52 161
e 52 168
e 52 179
e 52 190
e 52 192
e 52 200
e 52 202
e 52 204
e 52 213
e 53 61
e 53 80
e 53 86
e 53 105
e 53 110
e 53 113
e 53 119
e 53 123
e 53 124
e 53 144
e 53 147
e 53 155
e 53 162
e 53 164
e 53 165
e 53 175
e 53 184
e 53 191
e 53 207
e 53 213
e 54 58
e 54 74
e 54 78
e 54 83
e 54 132
e 54 137
e 54 147
e 54 149
e 54 162
e 54 163
e 54 167
e 54 178
e 54 198
e 55 56
e 55 58
e 55 64
e 55 65
e 55 106
e 55 110
e 55 111
e 55 115
e 55 116
e 55 122
e 55 146
e 55 154
e 55 163
e 55 182
e 55 195
e 55 197
e 55 215
e 56 64
e 56 65
e 56 72
e 56 91
e 56 95
e 56 111
e 56 116
e 56 125
e 56 134
e 56 154
e 56 163
e 56 174
e 56 182
e 56 183
e 57 66
e 57 74
e 57 77
e 57 98
e 57 100
e 57 101
e 57 102
e 57 105
e 57 107
e 57 126
e 57 128
e 57 157
e 57 171
e 57 174
e 57 195
e 57 198
e 57 210
e 57 216
e 58 74
e 58 78
e 58 83
e 58 106
e 58 110
e 58 115
e 58 122
e 58 132
e 58 137
e 58 146
e 58 149
e 58 162
e 58 195
e 58 197
e 58 215
e 59 63
e 59 81
e 59 89
e 59 114
e 59 116
e 59 124
e 59 131
e 59 138
e 59 151
e 59 153
e 59 171
e 59 173
e 59 177
e 59 196
e 59 199
e 59 202
e 60 66
e 60 68
e 60 77
e 60 84
e 60 85
e 60 88
e 60 95
e 60 108
e 60 127
e 60 135
e 60 152
e 60 172
e 60 173
e 60 188
e 60 206
e 60 213
e 61 80
e 61 86
e 61 99
e 61 105
e 61 113
e 61 123
e 61 124
e 61 133
e 61 141
e 61 144
e 61 146
e 61 156
e 61 162
e 61 164
e 61 169
e 61 175
e 61 176
e 61 188
e 61 189
e 61 192
e 61 207
e 61 213
e 62 75
e 62 80
e 62 96
e 62 107
e 62 114
e 62 121
e 62 133
e 62 134
e 62 137
e 62 143
e 62 145
e 62 150
e 62 168
e 62 194
e 62 205
e 62 206
e 62 217
e 63 68
e 63 72
e 63 89
e 63 94
e 63 102
e 63 115
e 63 116
e 63 123
e 63 131
e 63 138
e 63 151
e 63 153
e 63 180
e 63 186
e 63 199
e 64 65
e 64 69
e 64 70
e 64 87
e 64 94
e 64 103
e 64 111
e 64 116
e 64 154
e 64 163
e 64 176
e 64 182
e 64 191
e 64 205
e 64 209
e 65 81
e 65 90
e 65 109
e 65 111
e 65 116
e 65 142
e 65 154
e 65 163
e 65 182
e 65 210
e 66 68
e 66 85
e 66 88
e 66 98
e 66 105
e 66 126
e 66 127
e 66 135
e 66 152
e 66 172
e 66 173
e 66 174
e 66 188
e 66 195
e 66 198
e 66 206
e 66 210
e 66 216
e 67 71
e 67 79
e 67 91
e 67 93
e 67 96
e 67 101
e 67 104
e 67 120
e 67 126
e 67 130
e 67 135
e 67 149
e 67 153
e 67 160
e 67 164
e 67 181
e 67 189
e 67 194
e 67 214
e 68 72
e 68 85
e 68 88
e 68 94
e 68 102
e 68 115
e 68 123
e 68 127
e 68 135
e 68 152
e 68 172
e 68 173
e 68 180
e 68 186
e 68 188
e 68 206
e 69 70
e 69 87
e 69 92
e 69 94
e 69 103
e 69 121
e 69 122
e 69 160
e 69 175
e 69 176
e 69 191
e 69 193
e 69 204
e 69 205
e 69 209
e 70 73
e 70 85
e 70 87
e 70 89
e 70 94
e 70 103
e 70 117
e 70 142
e 70 157
e 70 176
e 70 178
e 70 181
e 70 190
e 70 191
e 70 205
e 70 209
e 71 79
e 71 82
e 71 91
e 71 101
e 71 111
e 71 132
e 71 135
e 71 140
e 71 145
e 71 153
e 71 164
e 71 185
e 71 194
e 71 203
e 71 214
e 72 91
e 72 94
e 72 95
e 72 102
e 72 115
e 72 123
e 72 125
e 72 134
e 72 174
e 72 180
e 72 183
e 72 186
e 73 84
e 73 85
e 73 89
e 73 112
e 73 117
e 73 141
e 73 142
e 73 150
e 73 155
e 73 157
e 73 170
e 73 178
e 73 181
e 73 190
e 73 201
e 73 214
e 74 77
e 74 78
e 74 83
e 74 100
e 74 101
e 74 102
e 74 107
e 74 128
e 74 132
e 74 137
e 74 149
e 74 157
e 74 162
e 74 171
e 75 90
e 75 100
e 75 114
e 75 121
e 75 133
e 75 137
e 75 138
e 75 139
e 75 143
e 75 148
e 75 152
e 75 159
e 75 170
e 75 185
e 75 194
e 75 207
e 76 78
e 76 86
e 76 92
e 76 97
e 76 99
e 76 109
e 76 112
e 76 117
e 76 125
e 76 130
e 76 154
e 76 161
e 76 172
e 76 177
e 76 211
e 76 215
e 77 84
e 77 95
e 77 100
e 77 101
e 77 102
e 77 107
e 77 108
e 77 128
e 77 157
e 77 171
e 77 213
e 78 83
e 78 92
e 78 97
e 78 99
e 78 117
e 78 132
e 78 137
e 78 149
e 78 154
e 78 162
e 78 177
e 79 91
e 79 101
e 79 108
e 79 135
e 79 153
e 79 164
e 79 165
e 79 166
e 79 180
e 79 182
e 79 194
e 79 196
e 79 211
e 79 214
e 79 216
e 79 217
e 80 86
e 80 96
e 80 105
e 80 107
e 80 113
e 80 123
e 80 124
e 80 134
e 80 144
e 80 145
e 80 150
e 80 162
e 80 164
e 80 168
e 80 175
e 80 205
e 80 206
e 80 207
e 80 213
e 80 217
e 81 90
e 81 109
e 81 114
e 81 124
e 81 142
e 81 171
e 81 173
e 81 177
e 81 196
e 81 202
e 81 210
e 82 87
e 82 106
e 82 111
e 82 120
e 82 132
e 82 140
e 82 145
e 82 151
e 82 158
e 82 185
e 82 200
e 82 201
e 82 203
e 82 208
e 83 132
e 83 137
e 83 148
e 83 149
e 83 156
e 83 158
e 83 162
e 83 187
e 83 193
e 84 95
e 84 108
e 84 112
e 84 141
e 84 150
e 84 155
e 84 170
e 84 201
e 84 213
e 84 214
e 85 88
e 85 89
e 85 117
e 85 127
e 85 135
e 85 142
e 85 152
e 85 157
e 85 172
e 85 173
e 85 178
e 85 181
e 85 188
e 85 190
e 85 206
e 86 105
e 86 109
e 86 112
e 86 113
e 86 123
e 86 124
e 86 125
e 86 130
e 86 144
e 86 161
e 86 162
e 86 164
e 86 172
e 86 175
e 86 207
e 86 211
e 86 213
e 86 215
e 87 94
e 87 103
e 87 106
e 87 120
e 87 151
e 87 158
e 87 176
e 87 191
e 87 200
e 87 201
e 87 205
e 87 208
e 87 209
e 88 104
e 88 113
e 88 127
e 88 135
e 88 143
e 88 152
e 88 172
e 88 173
e 88 179
e 88 183
e 88 188
e 88 197
e 88 206
e 88 209
e 88 212
e 89 116
e 89 117
e 89 131
e 89 138
e 89 142
e 89 151
e 89 153
e 89 157
e 89 178
e 89 181
e 89 190
e 89 199
e 90 100
e 90 109
e 90 138
e 90 139
e 90 142
e 90 148
e 90 152
e 90 159
e 90 170
e 90 185
e 90 207
e 90 210
e 91 95
e 91 101
e 91 125
e 91 134
e 91 135
e 91 153
e 91 164
e 91 174
e 91 183
e 91 194
e 91 214
e 92 97
e 92 99
e 92 117
e 92 121
e 92 122
e 92 154
e 92 160
e 92 175
e 92 177
e 92 193
e 92 204
e 93 96
e 93 104
e 93 118
e 93 120
e 93 126
e 93 127
e 93 128
e 93 129
e 93 130
e 93 131
e 93 149
e 93 160
e 93 167
e 93 181
e 93 189
e 93 203
e 94 102
e 94 103
e 94 115
e 94 123
e 94 176
e 94 180
e 94 186
e 94 191
e 94 205
e 94 209
e 95 108
e 95 125
e 95 134
e 95 174
e 95 183
e 95 213
e 96 104
e 96 107
e 96 120
e 96 126
e 96 130
e 96 134
e 96 145
e 96 149
e 96 150
e 96 160
e 96 168
e 96 181
e 96 189
e 96 205
e 96 206
e 96 217
e 97 99
e 97 103
e 97 117
e 97 136
e 97 140
e 97 144
e 97 154
e 97 166
e 97 177
e 97 187
e 97 199
e 98 105
e 98 118
e 98 119
e 98 126
e 98 136
e 98 159
e 98 161
e 98 168
e 98 174
e 98 179
e 98 190
e 98 192
e 98 195
e 98 198
e 98 200
e 98 202
e 98 204
e 98 210
e 98 216
e 99 117
e 99 133
e 99 141
e 99 146
e 99 154
e 99 156
e 99 169
e 99 176
e 99 177
e 99 188
e 99 189
e 99 192
e 100 101
e 100 102
e 100 107
e 100 128
e 100 138
e 100 139
e 100 148
e 100 152
e 100 157
e 100 159
e 100 170
e 100 171
e 100 185
e 100 207
e 101 102
e 101 107
e 101 128
e 101 135
e 101 153
e 101 157
e 101 164
e 101 171
e 101 194
e 101 214
e 102 107
e 102 115
e 102 123
e 102 128
e 102 157
e 102 171
e 102 180
e 102 186
e 103 136
e 103 140
e 103 144
e 103 166
e 103 176
e 103 187
e 103 191
e 103 199
e 103 205
e 103 209
e 104 113
e 104 120
e 104 126
e 104 130
e 104 143
e 104 149
e 104 160
e 104 179
e 104 181
e 104 183
e 104 189
e 104 197
e 104 209
e 104 212
e 105 113
e 105 123
e 105 124
e 105 126
e 105 144
e 105 162
e 105 164
e 105 174
e 105 175
e 105 195
e 105 198
e 105 207
e 105 210
e 105 213
e 105 216
e 106 110
e 106 115
e 106 120
e 106 122
e 106 146
e 106 151
e 106 158
e 106 195
e 106 197
e 106 200
e 106 201
e 106 208
e 106 215
e 107 128
e 107 134
e 107 145
e 107 150
e 107 157
e 107 168
e 107 171
e 107 205
e 107 206
e 107 217
e 108 165
e 108 166
e 108 180
e 108 182
e 108 196
e 108 211
e 108 213
e 108 216
e 108 217
e 109 112
e 109 125
e 109 130
e 109 142
e 109 161
e 109 172
e 109 210
e 109 211
e 109 215
e 110 115
e 110 119
e 110 122
e 110 146
e 110 147
e 110 155
e 110 165
e 110 184
e 110 191
e 110 195
e 110 197
e 110 215
e 111 116
e 111 132
e 111 140
e 111 145
e 111 154
e 111 163
e 111 182
e 111 185
e 111 203
e 112 125
e 112 130
e 112 141
e 112 150
e 112 155
e 112 161
e 112 170
e 112 172
e 112 201
e 112 211
e 112 214
e 112 215
e 113 123
e 113 124
e 113 143
e 113 144
e 113 162
e 113 164
e 113 175
e 113 179
e 113 183
e 113 197
e 113 207
e 113 209
e 113 212
e 113 213
e 114 121
e 114 124
e 114 133
e 114 137
e 114 143
e 114 171
e 114 173
e 114 177
e 114 194
e 114 196
e 114 202
e 115 122
e 115 123
e 115 146
e 115 180
e 115 186
e 115 195
e 115 197
e 115 215
e 116 131
e 116 138
e 116 151
e 116 153
e 116 154
e 116 163
e 116 182
e 116 199
e 117 142
e 117 154
e 117 157
e 117 177
e 117 178
e 117 181
e 117 190
e 118 119
e 118 127
e 118 128
e 118 129
e 118 131
e 118 136
e 118 159
e 118 161
e 118 167
e 118 168
e 118 179
e 118 190
e 118 192
e 118 200
e 118 202
e 118 203
e 118 204
e 119 136
e 119 147
e 119 155
e 119 159
e 119 161
e 119 165
e 119 168
e 119 179
e 119 184
e 119 190
e 119 191
e 119 192
e 119 200
e 119 202
e 119 204
e 120 126
e 120 130
e 120 149
e 120 151
e 120 158
e 120 160
e 120 181
e 120 189
e 120 200
e 120 201
e 120 208
e 121 122
e 121 133
e 121 137
e 121 143
e 121 160
e 121 175
e 121 193
e 121 194
e 121 204
e 122 146
e 122 160
e 122 175
e 122 193
e 122 195
e 122 197
e 122 204
e 122 215
e 123 124
e 123 144
e 123 162
e 123 164
e 123 175
e 123 180
e 123 186
e 123 207
e 123 213
e 124 144
e 124 162
e 124 164
e 124 171
e 124 173
e 124 175
e 124 177
e 124 196
e 124 202
e 124 207
e 124 213
e 125 130
e 125 134
e 125 161
e 125 172
e 125 174
e 125 183
e 125 211
e 125 215
e 126 130
e 126 149
e 126 160
e 126 174
e 126 181
e 126 189
e 126 195
e 126 198
e 126 210
e 126 216
e 127 128
e 127 129
e 127 131
e 127 135
e 127 152
e 127 167
e 127 172
e 127 173
e 127 188
e 127 203
e 127 206
e 128 129
e 128 131
e 128 157
e 128 167
e 128 171
e 128 203
e 129 131
e 129 139
e 129 167
e 129 169
e 129 184
e 129 186
e 129 203
e 129 208
e 129 212
e 130 149
e 130 160
e 130 161
e 130 172
e 130 181
e 130 189
e 130 211
e 130 215
e 131 138
e 131 151
e 131 153
e 131 167
e 131 199
e 131 203
e 132 137
e 132 140
e 132 145
e 132 149
e 132 162
e 132 185
e 132 203
e 133 137
e 133 141
e 133 143
e 133 146
e 133 156
e 133 169
e 133 176
e 133 188
e 133 189
e 133 192
e 133 194
e 134 145
e 134 150
e 134 168
e 134 174
e 134 183
e 134 205
e 134 206
e 134 217
e 135 152
e 135 153
e 135 164
e 135 172
e 135 173
e 135 188
e 135 194
e 135 206
e 135 214
e 136 140
e 136 144
e 136 159
e 136 161
e 136 166
e 136 168
e 136 179
e 136 187
e 136 190
e 136 192
e 136 199
e 136 200
e 136 202
e 136 204
e 137 143
e 137 149
e 137 162
e 137 194
e 138 139
e 138 148
e 138 151
e 138 152
e 138 153
e 138 159
e 138 170
e 138 185
e 138 199
e 138 207
e 139 148
e 139 152
e 139 159
e 139 169
e 139 170
e 139 184
e 139 185
e 139 186
e 139 207
e 139 208
e 139 212
e 140 144
e 140 145
e 140 166
e 140 185
e 140 187
e 140 199
e 140 203
e 141 146
e 141 150
e 141 155
e 141 156
e 141 169
e 141 170
e 141 176
e 141 188
e 141 189
e 141 192
e 141 201
e 141 214
e 142 157
e 142 178
e 142 181
e 142 190
e 142 210
e 143 179
e 143 183
e 143 194
e 143 197
e 143 209
e 143 212
e 144 162
e 144 164
e 144 166
e 144 175
e 144 187
e 144 199
e 144 207
e 144 213
e 145 150
e 145 168
e 145 185
e 145 203
e 145 205
e 145 206
e 145 217
e 146 156
e 146 169
e 146 176
e 146 188
e 146 189
e 146 192
e 146 195
e 146 197
e 146 215
e 147 155
e 147 163
e 147 165
e 147 167
e 147 178
e 147 184
e 147 191
e 147 198
e 148 152
e 148 156
e 148 158
e 148 159
e 148 170
e 148 185
e 148 187
e 148 193
e 148 207
e 149 160
e 149 162
e 149 181
e 149 189
e 150 155
e 150 168
e 150 170
e 150 201
e 150 205
e 150 206
e 150 214
e 150 217
e 151 153
e 151 158
e 151 199
e 151 200
e 151 201
e 151 208
e 152 159
e 152 170
e 152 172
e 152 173
e 152 185
e 152 188
e 152 206
e 152 207
e 153 164
e 153 194
e 153 199
e 153 214
e 154 163
e 154 177
e 154 182
e 155 165
e 155 170
e 155 184
e 155 191
e 155 201
e 155 214
e 156 158
e 156 169
e 156 176
e 156 187
e 156 188
e 156 189
e 156 192
e 156 193
e 157 171
e 157 178
e 157 181
e 157 190
e 158 187
e 158 193
e 158 200
e 158 201
e 158 208
e 159 161
e 159 168
e 159 170
e 159 179
e 159 185
e 159 190
e 159 192
e 159 200
e 159 202
e 159 204
e 159 207
e 160 175
e 160 181
e 160 189
e 160 193
e 160 204
e 161 168
e 161 172
e 161 179
e 161 190
e 161 192
e 161 200
e 161 202
e 161 204
e 161 211
e 161 215
e 162 164
e 162 175
e 162 207
e 162 213
e 163 167
e 163 178
e 163 182
e 163 198
e 164 175
e 164 194
e 164 207
e 164 213
e 164 214
e 165 166
e 165 180
e 165 182
e 165 184
e 165 191
e 165 196
e 165 211
e 165 216
e 165 217
e 166 180
e 166 182
e 166 187
e 166 196
e 166 199
e 166 211
e 166 216
e 166 217
e 167 178
e 167 198
e 167 203
e 168 179
e 168 190
e 168 192
e 168 200
e 168 202
e 168 204
e 168 205
e 168 206
e 168 217
e 169 176
e 169 184
e 169 186
e 169 188
e 169 189
e 169 192
e 169 208
e 169 212
e 170 185
e 170 201
e 170 207
e 170 214
e 171 173
e 171 177
e 171 196
e 171 202
e 172 173
e 172 188
e 172 206
e 172 211
e 172 215
e 173 177
e 173 188
e 173 196
e 173 202
e 173 206
e 174 183
e 174 195
e 174 198
e 174 210
e 174 216
e 175 193
e 175 204
e 175 207
e 175 213
e 176 188
e 176 189
e 176 191
e 176 192
e 176 205
e 176 209
e 177 196
e 177 202
e 178 181
e 178 190
e 178 198
e 179 183
e 179 190
e 179 192
e 179 197
e 179 200
e 179 202
e 179 204
e 179 209
e 179 212
e 180 182
e 180 186
e 180 196
e 180 211
e 180 216
e 180 217
e 181 189
e 181 190
e 182 196
e 182 211
e 182 216
e 182 217
e 183 197
e 183 209
e 183 212
e 184 186
e 184 191
e 184 208
e 184 212
e 185 203
e 185 207
e 186 208
e 186 212
e 187 193
e 187 199
e 188 189
e 188 192
e 188 206
e 189 192
e 190 192
e 190 200
e 190 202
e 190 204
e 191 205
e 191 209
e 192 200
e 192 202
e 192 204
e 193 204
e 194 214
e 195 197
e 195 198
e 195 210
e 195 215
e 195 216
e 196 202
e 196 211
e 196 216
e 196 217
e 197 209
e 197 212
e 197 215
e 198 210
e 198 216
e 200 201
e 200 202
e 200 204
e 200 208
e 201 208
e 201 214
e 202 204
e 205 206
e 205 209
e 205 217
e 206 217
e 207 213
e 208 212
e 209 212
e 210 216
e 211 215
e 211 216
e 211 217
e 216 217
